"file data/sdpa_7.dat-s generated by ncpol2sdpa"
527 = number of vars
29 = number of blocs
(32, 1, 1, 1, 1, 1, 1, 1, 1, 1, 1, 1, 1, 1, 1, 1, 1, 1, 1, 1, 1, 1, 1, 1, 1, 1, 1, 1, 1) = BlocStructure
{0, 0, -3.779742275307218, -4.75829599041035, -3.1944085623017213, -2.3396116510281284, -7.350297632938085, -4.013578868630528, -1.2702652862845605, 0, 0, 0, 0, 0, 0, 0, 0, 0, 0, 0, 0, 0, 0, 0, 0, 0, 0, 0, 0, 0, 0, 0, 0, 0, 0, 0, 0, 0, 0, 0, 0, 0, 0, 0, 0, 0, 0, 0, 0, 0, 0, 0, 0, 0, 0, 0, 0, 0, 0, 0, 0, 0, 0, 0, 0, 0, 0, 0, 0, 0, 0, 0, 0, 0, 0, 0, 0, 0, 0, 0, 0, 0, 0, 0, 0, 0, 0, 0, 0, 0, 0, 0, 1.0, 0, 0, 0, 0, 0, 0, 0, 0, 0, 0, 0, 0, 0, 0, 0, 0, 0, 0, 0, 0, 0, 0, 0, 0, 0, 0, 0, 0, 1.0, 0, 0, 0, 0, 0, 0, 0, 0, 0, 0, 0, 0, 0, 0, 0, 0, 0, 0, 0, 0, 0, 0, 0, 0, 0, 0, 0, 0.9999999999999999, 0, 0, 0, 0, 0, 0, 0, 0, 0, 0, 0, 0, 0, 0, 0, 0, 0, 0, 0, 0, 0, 0, 0, 0, 0, 0, 1.0, 0, 0, 0, 0, 0, 0, 0, 0, 0, 0, 0, 0, 0, 0, 0, 0, 0, 0, 0, 0, 0, 0, 0, 0, 0, 0.9999999999999999, 0, 0, 0, 0, 0, 0, 0, 0, 0, 0, 0, 0, 0, 0, 0, 0, 0, 0, 0, 0, 0, 0, 0, 0, 1.0, 0, 0, 0, 0, 0, 0, 0, 0, 0, 0, 0, 0, 0, 0, 0, 0, 0, 0, 0, 0, 0, 0, 0, 1.0, 0, 0, 0, 0, 0, 0, 0, 0, 0, 0, 0, 0, 0, 0, 0, 0, 0, 0, 0, 0, 0, 0, 0.0005, 0, 0, 0, 0, 0, 0, 0, 0, 0, 0, 0, 0, 0, 0, 0, 0, 0, 0, 0, 0, 0, 0.0005, 0, 0, 0, 0, 0, 0, 0, 0, 0, 0, 0, 0, 0, 0, 0, 0, 0, 0, 0, 0, 0.0005, 0, 0, 0, 0, 0, 0, 0, 0, 0, 0, 0, 0, 0, 0, 0, 0, 0, 0, 0, 0.0005, 0, 0, 0, 0, 0, 0, 0, 0, 0, 0, 0, 0, 0, 0, 0, 0, 0, 0, 0.0005, 0, 0, 0, 0, 0, 0, 0, 0, 0, 0, 0, 0, 0, 0, 0, 0, 0, 0.0005, 0, 0, 0, 0, 0, 0, 0, 0, 0, 0, 0, 0, 0, 0, 0, 0, 0.0005, 0, 0, 0, 0, 0, 0, 0, 0, 0, 0, 0, 0, 0, 0, 0, 0, 0, 0, 0, 0, 0, 0, 0, 0, 0, 0, 0, 0, 0, 0, 0, 0, 0, 0, 0, 0, 0, 0, 0, 0, 0, 0, 0, 0, 0, 0, 0, 0, 0, 0, 0, 0, 0, 0, 0, 0, 0, 0, 0, 0, 0, 0, 0, 0, 0, 0, 0, 0, 0, 0, 0, 0, 0, 0, 0, 0, 0, 0, 0, 0, 0, 0, 0, 0, 0, 0, 0, 0, 0, 0, 0, 0, 0, 0, 0, 0, 0, 0, 0, 0, 0, 0, 0, 0, 0, 0, 0, 0.0001, 0, 0, 0, 0, 0, 0, 0.0001, 0, 0, 0, 0, 0, 0.0001, 0, 0, 0, 0, 0.0001, 0, 0, 0, 0.0001, 0, 0, 0.0001, 0, 0.0001}
0	1	1	1	-1.0
1	1	1	2	1.0
2	1	1	3	1.0
3	1	1	4	1.0
3	2	1	1	1.0
3	9	1	1	-1.0
4	1	1	5	1.0
4	3	1	1	1.0
4	10	1	1	-1.0
5	1	1	6	1.0
5	4	1	1	1.0
5	11	1	1	-1.0
6	1	1	7	1.0
6	5	1	1	1.0
6	12	1	1	-1.0
7	1	1	8	1.0
7	6	1	1	1.0
7	13	1	1	-1.0
8	1	1	9	1.0
8	7	1	1	1.0
8	14	1	1	-1.0
9	1	1	10	1.0
9	8	1	1	1.0
9	15	1	1	-1.0
10	1	1	11	1.0
10	2	1	1	-1.0
10	9	1	1	1.0
11	1	1	12	1.0
11	3	1	1	-1.0
11	10	1	1	1.0
12	1	1	13	1.0
12	4	1	1	-1.0
12	11	1	1	1.0
13	1	1	14	1.0
13	5	1	1	-1.0
13	12	1	1	1.0
14	1	1	15	1.0
14	6	1	1	-1.0
14	13	1	1	1.0
15	1	1	16	1.0
15	7	1	1	-1.0
15	14	1	1	1.0
16	1	1	17	1.0
16	8	1	1	-1.0
16	15	1	1	1.0
17	1	1	18	1.0
18	1	1	19	1.0
18	16	1	1	1.0
18	23	1	1	-1.0
19	1	1	20	1.0
19	17	1	1	1.0
19	24	1	1	-1.0
20	1	1	21	1.0
20	18	1	1	1.0
20	25	1	1	-1.0
21	1	1	22	1.0
21	19	1	1	1.0
21	26	1	1	-1.0
22	1	1	23	1.0
22	20	1	1	1.0
22	27	1	1	-1.0
23	1	1	24	1.0
23	21	1	1	1.0
23	28	1	1	-1.0
24	1	1	25	1.0
24	22	1	1	1.0
24	29	1	1	-1.0
25	1	1	26	1.0
25	16	1	1	-1.0
25	23	1	1	1.0
26	1	1	27	1.0
26	17	1	1	-1.0
26	24	1	1	1.0
27	1	1	28	1.0
27	18	1	1	-1.0
27	25	1	1	1.0
28	1	1	29	1.0
28	19	1	1	-1.0
28	26	1	1	1.0
29	1	1	30	1.0
29	20	1	1	-1.0
29	27	1	1	1.0
30	1	1	31	1.0
30	21	1	1	-1.0
30	28	1	1	1.0
31	1	1	32	1.0
31	22	1	1	-1.0
31	29	1	1	1.0
32	1	2	2	1.0
33	1	2	3	1.0
34	1	2	4	1.0
35	1	2	5	1.0
36	1	2	6	1.0
37	1	2	7	1.0
38	1	2	8	1.0
39	1	2	9	1.0
40	1	2	10	1.0
41	1	2	11	1.0
42	1	2	12	1.0
43	1	2	13	1.0
44	1	2	14	1.0
45	1	2	15	1.0
46	1	2	16	1.0
47	1	2	17	1.0
48	1	2	18	1.0
48	16	1	1	-1.0
48	23	1	1	1.0
49	1	2	19	1.0
49	17	1	1	-1.0
49	24	1	1	1.0
50	1	2	20	1.0
50	18	1	1	-1.0
50	25	1	1	1.0
51	1	2	21	1.0
51	19	1	1	-1.0
51	26	1	1	1.0
52	1	2	22	1.0
52	20	1	1	-1.0
52	27	1	1	1.0
53	1	2	23	1.0
53	21	1	1	-1.0
53	28	1	1	1.0
54	1	2	24	1.0
54	22	1	1	-1.0
54	29	1	1	1.0
55	1	2	25	1.0
56	1	2	26	1.0
57	1	2	27	1.0
58	1	2	28	1.0
59	1	2	29	1.0
60	1	2	30	1.0
61	1	2	31	1.0
62	1	2	32	1.0
63	1	3	3	1.0
64	1	3	4	1.0
65	1	3	5	1.0
66	1	3	6	1.0
67	1	3	7	1.0
68	1	3	8	1.0
69	1	3	9	1.0
70	1	3	10	1.0
71	1	3	11	1.0
72	1	3	12	1.0
73	1	3	13	1.0
74	1	3	14	1.0
75	1	3	15	1.0
76	1	3	16	1.0
77	1	3	17	1.0
78	1	3	18	1.0
79	1	3	19	1.0
79	2	1	1	-1.0
79	9	1	1	1.0
80	1	3	20	1.0
80	3	1	1	-1.0
80	10	1	1	1.0
81	1	3	21	1.0
81	4	1	1	-1.0
81	11	1	1	1.0
82	1	3	22	1.0
82	5	1	1	-1.0
82	12	1	1	1.0
83	1	3	23	1.0
83	6	1	1	-1.0
83	13	1	1	1.0
84	1	3	24	1.0
84	7	1	1	-1.0
84	14	1	1	1.0
85	1	3	25	1.0
85	8	1	1	-1.0
85	15	1	1	1.0
86	1	3	26	1.0
87	1	3	27	1.0
88	1	3	28	1.0
89	1	3	29	1.0
90	1	3	30	1.0
91	1	3	31	1.0
92	1	3	32	1.0
93	1	4	4	1.0
94	1	4	5	1.0
95	1	4	6	1.0
96	1	4	7	1.0
97	1	4	8	1.0
98	1	4	9	1.0
99	1	4	10	1.0
100	1	4	11	1.0
101	1	4	12	1.0
102	1	4	13	1.0
103	1	4	14	1.0
104	1	4	15	1.0
105	1	4	16	1.0
106	1	4	17	1.0
107	1	4	18	1.0
108	1	4	19	1.0
109	1	4	20	1.0
110	1	4	21	1.0
111	1	4	22	1.0
112	1	4	23	1.0
113	1	4	24	1.0
114	1	4	25	1.0
115	1	4	26	1.0
116	1	4	27	1.0
117	1	4	28	1.0
118	1	4	29	1.0
119	1	4	30	1.0
120	1	4	31	1.0
121	1	4	32	1.0
122	1	5	5	1.0
123	1	5	6	1.0
124	1	5	7	1.0
125	1	5	8	1.0
126	1	5	9	1.0
127	1	5	10	1.0
128	1	5	11	1.0
129	1	5	12	1.0
130	1	5	13	1.0
131	1	5	14	1.0
132	1	5	15	1.0
133	1	5	16	1.0
134	1	5	17	1.0
135	1	5	18	1.0
136	1	5	19	1.0
137	1	5	20	1.0
138	1	5	21	1.0
139	1	5	22	1.0
140	1	5	23	1.0
141	1	5	24	1.0
142	1	5	25	1.0
143	1	5	26	1.0
144	1	5	27	1.0
145	1	5	28	1.0
146	1	5	29	1.0
147	1	5	30	1.0
148	1	5	31	1.0
149	1	5	32	1.0
150	1	6	6	1.0
151	1	6	7	1.0
152	1	6	8	1.0
153	1	6	9	1.0
154	1	6	10	1.0
155	1	6	11	1.0
156	1	6	12	1.0
157	1	6	13	1.0
158	1	6	14	1.0
159	1	6	15	1.0
160	1	6	16	1.0
161	1	6	17	1.0
162	1	6	18	1.0
163	1	6	19	1.0
164	1	6	20	1.0
165	1	6	21	1.0
166	1	6	22	1.0
167	1	6	23	1.0
168	1	6	24	1.0
169	1	6	25	1.0
170	1	6	26	1.0
171	1	6	27	1.0
172	1	6	28	1.0
173	1	6	29	1.0
174	1	6	30	1.0
175	1	6	31	1.0
176	1	6	32	1.0
177	1	7	7	1.0
178	1	7	8	1.0
179	1	7	9	1.0
180	1	7	10	1.0
181	1	7	11	1.0
182	1	7	12	1.0
183	1	7	13	1.0
184	1	7	14	1.0
185	1	7	15	1.0
186	1	7	16	1.0
187	1	7	17	1.0
188	1	7	18	1.0
189	1	7	19	1.0
190	1	7	20	1.0
191	1	7	21	1.0
192	1	7	22	1.0
193	1	7	23	1.0
194	1	7	24	1.0
195	1	7	25	1.0
196	1	7	26	1.0
197	1	7	27	1.0
198	1	7	28	1.0
199	1	7	29	1.0
200	1	7	30	1.0
201	1	7	31	1.0
202	1	7	32	1.0
203	1	8	8	1.0
204	1	8	9	1.0
205	1	8	10	1.0
206	1	8	11	1.0
207	1	8	12	1.0
208	1	8	13	1.0
209	1	8	14	1.0
210	1	8	15	1.0
211	1	8	16	1.0
212	1	8	17	1.0
213	1	8	18	1.0
214	1	8	19	1.0
215	1	8	20	1.0
216	1	8	21	1.0
217	1	8	22	1.0
218	1	8	23	1.0
219	1	8	24	1.0
220	1	8	25	1.0
221	1	8	26	1.0
222	1	8	27	1.0
223	1	8	28	1.0
224	1	8	29	1.0
225	1	8	30	1.0
226	1	8	31	1.0
227	1	8	32	1.0
228	1	9	9	1.0
229	1	9	10	1.0
230	1	9	11	1.0
231	1	9	12	1.0
232	1	9	13	1.0
233	1	9	14	1.0
234	1	9	15	1.0
235	1	9	16	1.0
236	1	9	17	1.0
237	1	9	18	1.0
238	1	9	19	1.0
239	1	9	20	1.0
240	1	9	21	1.0
241	1	9	22	1.0
242	1	9	23	1.0
243	1	9	24	1.0
244	1	9	25	1.0
245	1	9	26	1.0
246	1	9	27	1.0
247	1	9	28	1.0
248	1	9	29	1.0
249	1	9	30	1.0
250	1	9	31	1.0
251	1	9	32	1.0
252	1	10	10	1.0
253	1	10	11	1.0
254	1	10	12	1.0
255	1	10	13	1.0
256	1	10	14	1.0
257	1	10	15	1.0
258	1	10	16	1.0
259	1	10	17	1.0
260	1	10	18	1.0
261	1	10	19	1.0
262	1	10	20	1.0
263	1	10	21	1.0
264	1	10	22	1.0
265	1	10	23	1.0
266	1	10	24	1.0
267	1	10	25	1.0
268	1	10	26	1.0
269	1	10	27	1.0
270	1	10	28	1.0
271	1	10	29	1.0
272	1	10	30	1.0
273	1	10	31	1.0
274	1	10	32	1.0
275	1	11	11	1.0
276	1	11	12	1.0
277	1	11	13	1.0
278	1	11	14	1.0
279	1	11	15	1.0
280	1	11	16	1.0
281	1	11	17	1.0
282	1	11	18	1.0
283	1	11	19	1.0
284	1	11	20	1.0
285	1	11	21	1.0
286	1	11	22	1.0
287	1	11	23	1.0
288	1	11	24	1.0
289	1	11	25	1.0
290	1	11	26	1.0
291	1	11	27	1.0
292	1	11	28	1.0
293	1	11	29	1.0
294	1	11	30	1.0
295	1	11	31	1.0
296	1	11	32	1.0
297	1	12	12	1.0
298	1	12	13	1.0
299	1	12	14	1.0
300	1	12	15	1.0
301	1	12	16	1.0
302	1	12	17	1.0
303	1	12	18	1.0
304	1	12	19	1.0
305	1	12	20	1.0
306	1	12	21	1.0
307	1	12	22	1.0
308	1	12	23	1.0
309	1	12	24	1.0
310	1	12	25	1.0
311	1	12	26	1.0
312	1	12	27	1.0
313	1	12	28	1.0
314	1	12	29	1.0
315	1	12	30	1.0
316	1	12	31	1.0
317	1	12	32	1.0
318	1	13	13	1.0
319	1	13	14	1.0
320	1	13	15	1.0
321	1	13	16	1.0
322	1	13	17	1.0
323	1	13	18	1.0
324	1	13	19	1.0
325	1	13	20	1.0
326	1	13	21	1.0
327	1	13	22	1.0
328	1	13	23	1.0
329	1	13	24	1.0
330	1	13	25	1.0
331	1	13	26	1.0
332	1	13	27	1.0
333	1	13	28	1.0
334	1	13	29	1.0
335	1	13	30	1.0
336	1	13	31	1.0
337	1	13	32	1.0
338	1	14	14	1.0
339	1	14	15	1.0
340	1	14	16	1.0
341	1	14	17	1.0
342	1	14	18	1.0
343	1	14	19	1.0
344	1	14	20	1.0
345	1	14	21	1.0
346	1	14	22	1.0
347	1	14	23	1.0
348	1	14	24	1.0
349	1	14	25	1.0
350	1	14	26	1.0
351	1	14	27	1.0
352	1	14	28	1.0
353	1	14	29	1.0
354	1	14	30	1.0
355	1	14	31	1.0
356	1	14	32	1.0
357	1	15	15	1.0
358	1	15	16	1.0
359	1	15	17	1.0
360	1	15	18	1.0
361	1	15	19	1.0
362	1	15	20	1.0
363	1	15	21	1.0
364	1	15	22	1.0
365	1	15	23	1.0
366	1	15	24	1.0
367	1	15	25	1.0
368	1	15	26	1.0
369	1	15	27	1.0
370	1	15	28	1.0
371	1	15	29	1.0
372	1	15	30	1.0
373	1	15	31	1.0
374	1	15	32	1.0
375	1	16	16	1.0
376	1	16	17	1.0
377	1	16	18	1.0
378	1	16	19	1.0
379	1	16	20	1.0
380	1	16	21	1.0
381	1	16	22	1.0
382	1	16	23	1.0
383	1	16	24	1.0
384	1	16	25	1.0
385	1	16	26	1.0
386	1	16	27	1.0
387	1	16	28	1.0
388	1	16	29	1.0
389	1	16	30	1.0
390	1	16	31	1.0
391	1	16	32	1.0
392	1	17	17	1.0
393	1	17	18	1.0
394	1	17	19	1.0
395	1	17	20	1.0
396	1	17	21	1.0
397	1	17	22	1.0
398	1	17	23	1.0
399	1	17	24	1.0
400	1	17	25	1.0
401	1	17	26	1.0
402	1	17	27	1.0
403	1	17	28	1.0
404	1	17	29	1.0
405	1	17	30	1.0
406	1	17	31	1.0
407	1	17	32	1.0
408	1	18	18	1.0
409	1	18	19	1.0
410	1	18	20	1.0
411	1	18	21	1.0
412	1	18	22	1.0
413	1	18	23	1.0
414	1	18	24	1.0
415	1	18	25	1.0
416	1	18	26	1.0
417	1	18	27	1.0
418	1	18	28	1.0
419	1	18	29	1.0
420	1	18	30	1.0
421	1	18	31	1.0
422	1	18	32	1.0
423	1	19	19	1.0
424	1	19	20	1.0
425	1	19	21	1.0
426	1	19	22	1.0
427	1	19	23	1.0
428	1	19	24	1.0
429	1	19	25	1.0
430	1	19	26	1.0
431	1	19	27	1.0
432	1	19	28	1.0
433	1	19	29	1.0
434	1	19	30	1.0
435	1	19	31	1.0
436	1	19	32	1.0
437	1	20	20	1.0
438	1	20	21	1.0
439	1	20	22	1.0
440	1	20	23	1.0
441	1	20	24	1.0
442	1	20	25	1.0
443	1	20	26	1.0
444	1	20	27	1.0
445	1	20	28	1.0
446	1	20	29	1.0
447	1	20	30	1.0
448	1	20	31	1.0
449	1	20	32	1.0
450	1	21	21	1.0
451	1	21	22	1.0
452	1	21	23	1.0
453	1	21	24	1.0
454	1	21	25	1.0
455	1	21	26	1.0
456	1	21	27	1.0
457	1	21	28	1.0
458	1	21	29	1.0
459	1	21	30	1.0
460	1	21	31	1.0
461	1	21	32	1.0
462	1	22	22	1.0
463	1	22	23	1.0
464	1	22	24	1.0
465	1	22	25	1.0
466	1	22	26	1.0
467	1	22	27	1.0
468	1	22	28	1.0
469	1	22	29	1.0
470	1	22	30	1.0
471	1	22	31	1.0
472	1	22	32	1.0
473	1	23	23	1.0
474	1	23	24	1.0
475	1	23	25	1.0
476	1	23	26	1.0
477	1	23	27	1.0
478	1	23	28	1.0
479	1	23	29	1.0
480	1	23	30	1.0
481	1	23	31	1.0
482	1	23	32	1.0
483	1	24	24	1.0
484	1	24	25	1.0
485	1	24	26	1.0
486	1	24	27	1.0
487	1	24	28	1.0
488	1	24	29	1.0
489	1	24	30	1.0
490	1	24	31	1.0
491	1	24	32	1.0
492	1	25	25	1.0
493	1	25	26	1.0
494	1	25	27	1.0
495	1	25	28	1.0
496	1	25	29	1.0
497	1	25	30	1.0
498	1	25	31	1.0
499	1	25	32	1.0
500	1	26	26	1.0
501	1	26	27	1.0
502	1	26	28	1.0
503	1	26	29	1.0
504	1	26	30	1.0
505	1	26	31	1.0
506	1	26	32	1.0
507	1	27	27	1.0
508	1	27	28	1.0
509	1	27	29	1.0
510	1	27	30	1.0
511	1	27	31	1.0
512	1	27	32	1.0
513	1	28	28	1.0
514	1	28	29	1.0
515	1	28	30	1.0
516	1	28	31	1.0
517	1	28	32	1.0
518	1	29	29	1.0
519	1	29	30	1.0
520	1	29	31	1.0
521	1	29	32	1.0
522	1	30	30	1.0
523	1	30	31	1.0
524	1	30	32	1.0
525	1	31	31	1.0
526	1	31	32	1.0
527	1	32	32	1.0
